n_boats=40;
n_periods=23;
capacity=[13,13,6,11,8,11,1,8,10,6,3,2,4,9,5,2,2,12,9,3,1,7,12,2,8,11,1,9,2,7,8,9,8,5,13,12,11,12,9,3];
crew=[7,6,1,4,3,4,1,1,6,3,1,1,2,1,1,1,1,2,4,1,1,4,5,1,1,6,1,3,1,2,2,4,4,3,7,6,2,5,4,1];
